(set-logic QF_LRA)
(declare-fun X0 () Real )
(declare-fun Y0 () Real )
(declare-fun X1 () Real )
(declare-fun Y1 () Real )
(declare-fun X2 () Real )
(declare-fun Y2 () Real )
(declare-fun X3 () Real )
(declare-fun Y3 () Real )
(declare-fun X4 () Real )
(declare-fun Y4 () Real )
(declare-fun X5 () Real )
(declare-fun Y5 () Real )
(declare-fun X6 () Real )
(declare-fun Y6 () Real )
(declare-fun X7 () Real )
(declare-fun Y7 () Real )
(declare-fun X8 () Real )
(declare-fun Y8 () Real )
(declare-fun X9 () Real )
(declare-fun Y9 () Real )
(declare-fun X10 () Real )
(declare-fun Y10 () Real )
(declare-fun X11 () Real )
(declare-fun Y11 () Real )
(declare-fun Z () Real )
(declare-fun k () Real )
(assert (let
(( $goal (>= Z k) ))
(let
((
$phi ( and 
( or ( <= ( + X0 37 ) X1 )  ( <= ( + X1 91 ) X0 )  ( <= ( + Y0 49 ) Y1 )  ( <= ( + Y1 95 ) Y0 )  )
( or ( <= ( + X0 37 ) X2 )  ( <= ( + X2 16 ) X0 )  ( <= ( + Y0 49 ) Y2 )  ( <= ( + Y2 72 ) Y0 )  )
( or ( <= ( + X0 37 ) X3 )  ( <= ( + X3 66 ) X0 )  ( <= ( + Y0 49 ) Y3 )  ( <= ( + Y3 44 ) Y0 )  )
( or ( <= ( + X0 37 ) X4 )  ( <= ( + X4 71 ) X0 )  ( <= ( + Y0 49 ) Y4 )  ( <= ( + Y4 73 ) Y0 )  )
( or ( <= ( + X0 37 ) X5 )  ( <= ( + X5 16 ) X0 )  ( <= ( + Y0 49 ) Y5 )  ( <= ( + Y5 47 ) Y0 )  )
( or ( <= ( + X0 37 ) X6 )  ( <= ( + X6 30 ) X0 )  ( <= ( + Y0 49 ) Y6 )  ( <= ( + Y6 81 ) Y0 )  )
( or ( <= ( + X0 37 ) X7 )  ( <= ( + X7 23 ) X0 )  ( <= ( + Y0 49 ) Y7 )  ( <= ( + Y7 14 ) Y0 )  )
( or ( <= ( + X0 37 ) X8 )  ( <= ( + X8 38 ) X0 )  ( <= ( + Y0 49 ) Y8 )  ( <= ( + Y8 95 ) Y0 )  )
( or ( <= ( + X0 37 ) X9 )  ( <= ( + X9 5 ) X0 )  ( <= ( + Y0 49 ) Y9 )  ( <= ( + Y9 81 ) Y0 )  )
( or ( <= ( + X0 37 ) X10 )  ( <= ( + X10 85 ) X0 )  ( <= ( + Y0 49 ) Y10 )  ( <= ( + Y10 26 ) Y0 )  )
( or ( <= ( + X0 37 ) X11 )  ( <= ( + X11 47 ) X0 )  ( <= ( + Y0 49 ) Y11 )  ( <= ( + Y11 56 ) Y0 )  )
( or ( <= ( + X1 91 ) X2 )  ( <= ( + X2 16 ) X1 )  ( <= ( + Y1 95 ) Y2 )  ( <= ( + Y2 72 ) Y1 )  )
( or ( <= ( + X1 91 ) X3 )  ( <= ( + X3 66 ) X1 )  ( <= ( + Y1 95 ) Y3 )  ( <= ( + Y3 44 ) Y1 )  )
( or ( <= ( + X1 91 ) X4 )  ( <= ( + X4 71 ) X1 )  ( <= ( + Y1 95 ) Y4 )  ( <= ( + Y4 73 ) Y1 )  )
( or ( <= ( + X1 91 ) X5 )  ( <= ( + X5 16 ) X1 )  ( <= ( + Y1 95 ) Y5 )  ( <= ( + Y5 47 ) Y1 )  )
( or ( <= ( + X1 91 ) X6 )  ( <= ( + X6 30 ) X1 )  ( <= ( + Y1 95 ) Y6 )  ( <= ( + Y6 81 ) Y1 )  )
( or ( <= ( + X1 91 ) X7 )  ( <= ( + X7 23 ) X1 )  ( <= ( + Y1 95 ) Y7 )  ( <= ( + Y7 14 ) Y1 )  )
( or ( <= ( + X1 91 ) X8 )  ( <= ( + X8 38 ) X1 )  ( <= ( + Y1 95 ) Y8 )  ( <= ( + Y8 95 ) Y1 )  )
( or ( <= ( + X1 91 ) X9 )  ( <= ( + X9 5 ) X1 )  ( <= ( + Y1 95 ) Y9 )  ( <= ( + Y9 81 ) Y1 )  )
( or ( <= ( + X1 91 ) X10 )  ( <= ( + X10 85 ) X1 )  ( <= ( + Y1 95 ) Y10 )  ( <= ( + Y10 26 ) Y1 )  )
( or ( <= ( + X1 91 ) X11 )  ( <= ( + X11 47 ) X1 )  ( <= ( + Y1 95 ) Y11 )  ( <= ( + Y11 56 ) Y1 )  )
( or ( <= ( + X2 16 ) X3 )  ( <= ( + X3 66 ) X2 )  ( <= ( + Y2 72 ) Y3 )  ( <= ( + Y3 44 ) Y2 )  )
( or ( <= ( + X2 16 ) X4 )  ( <= ( + X4 71 ) X2 )  ( <= ( + Y2 72 ) Y4 )  ( <= ( + Y4 73 ) Y2 )  )
( or ( <= ( + X2 16 ) X5 )  ( <= ( + X5 16 ) X2 )  ( <= ( + Y2 72 ) Y5 )  ( <= ( + Y5 47 ) Y2 )  )
( or ( <= ( + X2 16 ) X6 )  ( <= ( + X6 30 ) X2 )  ( <= ( + Y2 72 ) Y6 )  ( <= ( + Y6 81 ) Y2 )  )
( or ( <= ( + X2 16 ) X7 )  ( <= ( + X7 23 ) X2 )  ( <= ( + Y2 72 ) Y7 )  ( <= ( + Y7 14 ) Y2 )  )
( or ( <= ( + X2 16 ) X8 )  ( <= ( + X8 38 ) X2 )  ( <= ( + Y2 72 ) Y8 )  ( <= ( + Y8 95 ) Y2 )  )
( or ( <= ( + X2 16 ) X9 )  ( <= ( + X9 5 ) X2 )  ( <= ( + Y2 72 ) Y9 )  ( <= ( + Y9 81 ) Y2 )  )
( or ( <= ( + X2 16 ) X10 )  ( <= ( + X10 85 ) X2 )  ( <= ( + Y2 72 ) Y10 )  ( <= ( + Y10 26 ) Y2 )  )
( or ( <= ( + X2 16 ) X11 )  ( <= ( + X11 47 ) X2 )  ( <= ( + Y2 72 ) Y11 )  ( <= ( + Y11 56 ) Y2 )  )
( or ( <= ( + X3 66 ) X4 )  ( <= ( + X4 71 ) X3 )  ( <= ( + Y3 44 ) Y4 )  ( <= ( + Y4 73 ) Y3 )  )
( or ( <= ( + X3 66 ) X5 )  ( <= ( + X5 16 ) X3 )  ( <= ( + Y3 44 ) Y5 )  ( <= ( + Y5 47 ) Y3 )  )
( or ( <= ( + X3 66 ) X6 )  ( <= ( + X6 30 ) X3 )  ( <= ( + Y3 44 ) Y6 )  ( <= ( + Y6 81 ) Y3 )  )
( or ( <= ( + X3 66 ) X7 )  ( <= ( + X7 23 ) X3 )  ( <= ( + Y3 44 ) Y7 )  ( <= ( + Y7 14 ) Y3 )  )
( or ( <= ( + X3 66 ) X8 )  ( <= ( + X8 38 ) X3 )  ( <= ( + Y3 44 ) Y8 )  ( <= ( + Y8 95 ) Y3 )  )
( or ( <= ( + X3 66 ) X9 )  ( <= ( + X9 5 ) X3 )  ( <= ( + Y3 44 ) Y9 )  ( <= ( + Y9 81 ) Y3 )  )
( or ( <= ( + X3 66 ) X10 )  ( <= ( + X10 85 ) X3 )  ( <= ( + Y3 44 ) Y10 )  ( <= ( + Y10 26 ) Y3 )  )
( or ( <= ( + X3 66 ) X11 )  ( <= ( + X11 47 ) X3 )  ( <= ( + Y3 44 ) Y11 )  ( <= ( + Y11 56 ) Y3 )  )
( or ( <= ( + X4 71 ) X5 )  ( <= ( + X5 16 ) X4 )  ( <= ( + Y4 73 ) Y5 )  ( <= ( + Y5 47 ) Y4 )  )
( or ( <= ( + X4 71 ) X6 )  ( <= ( + X6 30 ) X4 )  ( <= ( + Y4 73 ) Y6 )  ( <= ( + Y6 81 ) Y4 )  )
( or ( <= ( + X4 71 ) X7 )  ( <= ( + X7 23 ) X4 )  ( <= ( + Y4 73 ) Y7 )  ( <= ( + Y7 14 ) Y4 )  )
( or ( <= ( + X4 71 ) X8 )  ( <= ( + X8 38 ) X4 )  ( <= ( + Y4 73 ) Y8 )  ( <= ( + Y8 95 ) Y4 )  )
( or ( <= ( + X4 71 ) X9 )  ( <= ( + X9 5 ) X4 )  ( <= ( + Y4 73 ) Y9 )  ( <= ( + Y9 81 ) Y4 )  )
( or ( <= ( + X4 71 ) X10 )  ( <= ( + X10 85 ) X4 )  ( <= ( + Y4 73 ) Y10 )  ( <= ( + Y10 26 ) Y4 )  )
( or ( <= ( + X4 71 ) X11 )  ( <= ( + X11 47 ) X4 )  ( <= ( + Y4 73 ) Y11 )  ( <= ( + Y11 56 ) Y4 )  )
( or ( <= ( + X5 16 ) X6 )  ( <= ( + X6 30 ) X5 )  ( <= ( + Y5 47 ) Y6 )  ( <= ( + Y6 81 ) Y5 )  )
( or ( <= ( + X5 16 ) X7 )  ( <= ( + X7 23 ) X5 )  ( <= ( + Y5 47 ) Y7 )  ( <= ( + Y7 14 ) Y5 )  )
( or ( <= ( + X5 16 ) X8 )  ( <= ( + X8 38 ) X5 )  ( <= ( + Y5 47 ) Y8 )  ( <= ( + Y8 95 ) Y5 )  )
( or ( <= ( + X5 16 ) X9 )  ( <= ( + X9 5 ) X5 )  ( <= ( + Y5 47 ) Y9 )  ( <= ( + Y9 81 ) Y5 )  )
( or ( <= ( + X5 16 ) X10 )  ( <= ( + X10 85 ) X5 )  ( <= ( + Y5 47 ) Y10 )  ( <= ( + Y10 26 ) Y5 )  )
( or ( <= ( + X5 16 ) X11 )  ( <= ( + X11 47 ) X5 )  ( <= ( + Y5 47 ) Y11 )  ( <= ( + Y11 56 ) Y5 )  )
( or ( <= ( + X6 30 ) X7 )  ( <= ( + X7 23 ) X6 )  ( <= ( + Y6 81 ) Y7 )  ( <= ( + Y7 14 ) Y6 )  )
( or ( <= ( + X6 30 ) X8 )  ( <= ( + X8 38 ) X6 )  ( <= ( + Y6 81 ) Y8 )  ( <= ( + Y8 95 ) Y6 )  )
( or ( <= ( + X6 30 ) X9 )  ( <= ( + X9 5 ) X6 )  ( <= ( + Y6 81 ) Y9 )  ( <= ( + Y9 81 ) Y6 )  )
( or ( <= ( + X6 30 ) X10 )  ( <= ( + X10 85 ) X6 )  ( <= ( + Y6 81 ) Y10 )  ( <= ( + Y10 26 ) Y6 )  )
( or ( <= ( + X6 30 ) X11 )  ( <= ( + X11 47 ) X6 )  ( <= ( + Y6 81 ) Y11 )  ( <= ( + Y11 56 ) Y6 )  )
( or ( <= ( + X7 23 ) X8 )  ( <= ( + X8 38 ) X7 )  ( <= ( + Y7 14 ) Y8 )  ( <= ( + Y8 95 ) Y7 )  )
( or ( <= ( + X7 23 ) X9 )  ( <= ( + X9 5 ) X7 )  ( <= ( + Y7 14 ) Y9 )  ( <= ( + Y9 81 ) Y7 )  )
( or ( <= ( + X7 23 ) X10 )  ( <= ( + X10 85 ) X7 )  ( <= ( + Y7 14 ) Y10 )  ( <= ( + Y10 26 ) Y7 )  )
( or ( <= ( + X7 23 ) X11 )  ( <= ( + X11 47 ) X7 )  ( <= ( + Y7 14 ) Y11 )  ( <= ( + Y11 56 ) Y7 )  )
( or ( <= ( + X8 38 ) X9 )  ( <= ( + X9 5 ) X8 )  ( <= ( + Y8 95 ) Y9 )  ( <= ( + Y9 81 ) Y8 )  )
( or ( <= ( + X8 38 ) X10 )  ( <= ( + X10 85 ) X8 )  ( <= ( + Y8 95 ) Y10 )  ( <= ( + Y10 26 ) Y8 )  )
( or ( <= ( + X8 38 ) X11 )  ( <= ( + X11 47 ) X8 )  ( <= ( + Y8 95 ) Y11 )  ( <= ( + Y11 56 ) Y8 )  )
( or ( <= ( + X9 5 ) X10 )  ( <= ( + X10 85 ) X9 )  ( <= ( + Y9 81 ) Y10 )  ( <= ( + Y10 26 ) Y9 )  )
( or ( <= ( + X9 5 ) X11 )  ( <= ( + X11 47 ) X9 )  ( <= ( + Y9 81 ) Y11 )  ( <= ( + Y11 56 ) Y9 )  )
( or ( <= ( + X10 85 ) X11 )  ( <= ( + X11 47 ) X10 )  ( <= ( + Y10 26 ) Y11 )  ( <= ( + Y11 56 ) Y10 )  )
( >= X0 0)
( <= ( + X0 37) Z)
( >= Y0 0)
( <= ( + Y0 49 ) 173)
( >= X1 0)
( <= ( + X1 91) Z)
( >= Y1 0)
( <= ( + Y1 95 ) 173)
( >= X2 0)
( <= ( + X2 16) Z)
( >= Y2 0)
( <= ( + Y2 72 ) 173)
( >= X3 0)
( <= ( + X3 66) Z)
( >= Y3 0)
( <= ( + Y3 44 ) 173)
( >= X4 0)
( <= ( + X4 71) Z)
( >= Y4 0)
( <= ( + Y4 73 ) 173)
( >= X5 0)
( <= ( + X5 16) Z)
( >= Y5 0)
( <= ( + Y5 47 ) 173)
( >= X6 0)
( <= ( + X6 30) Z)
( >= Y6 0)
( <= ( + Y6 81 ) 173)
( >= X7 0)
( <= ( + X7 23) Z)
( >= Y7 0)
( <= ( + Y7 14 ) 173)
( >= X8 0)
( <= ( + X8 38) Z)
( >= Y8 0)
( <= ( + Y8 95 ) 173)
( >= X9 0)
( <= ( + X9 5) Z)
( >= Y9 0)
( <= ( + Y9 81 ) 173)
( >= X10 0)
( <= ( + X10 85) Z)
( >= Y10 0)
( <= ( + Y10 26 ) 173)
( >= X11 0)
( <= ( + X11 47) Z)
( >= Y11 0)
( <= ( + Y11 56 ) 173)
) )
)(=> $phi $goal))))